47
1000
200	1
198	1
197	4
195	1
194	1
193	3
192	3
191	2
190	2
189	1
188	2
187	3
186	2
185	2
183	6
182	1
181	6
180	3
179	5
178	3
177	2
176	4
175	3
174	1
173	3
172	1
171	3
170	3
169	2
168	2
167	1
166	2
165	2
164	2
163	3
162	1
161	4
160	1
159	1
158	3
157	3
156	4
155	3
154	5
153	2
152	3
151	4
